10
100 300 5
90 140 5
80 300 5
70 300 5
67 150 5
50 300 5
40 160 5
36 300 5
20 170 5
10 300 5
0 8 50 9 10 55 11 12 60 13 14
8 0 52 7 9 57 10 11 62 12 13
48 52 0 50 51 5 49 53 6 54 55
9 7 49 0 8 54 9 10 59 11 12
10 9 50 8 0 55 10 11 60 12 13
55 57 5 54 55 0 52 58 6 59 60
11 10 49 9 10 52 0 12 57 13 14
12 11 53 10 11 58 12 0 61 13 15
60 62 6 59 60 6 57 61 0 63 64
13 12 54 11 12 59 13 13 63 0 14
14 13 55 12 13 60 14 15 64 14 0
